Version identifier: 22.1.1.0 | 2022-11-28 | 9160aff4d
CPXPARAM_ClockType                               1
CPXPARAM_Read_DataCheck                          1
CPXPARAM_Threads                                 1
CPXPARAM_TimeLimit                               7200
CPXPARAM_MIP_Tolerances_AbsMIPGap                0
CPXPARAM_MIP_Tolerances_MIPGap                   0
CPXPARAM_MIP_Tolerances_Integrality              0
Found incumbent of value 0.000000 after 0.01 sec. (4.41 ticks)
Tried aggregator 1 time.
MIP Presolve eliminated 27 rows and 9 columns.
MIP Presolve modified 18 coefficients.
Reduced MIP has 64337 rows, 3801 columns, and 198436 nonzeros.
Reduced MIP has 3801 binaries, 0 generals, 0 SOSs, and 0 indicators.
Presolve time = 0.13 sec. (85.03 ticks)
Probing time = 0.01 sec. (5.87 ticks)
Tried aggregator 1 time.
Detecting symmetries...
Reduced MIP has 64337 rows, 3801 columns, and 198436 nonzeros.
Reduced MIP has 3801 binaries, 0 generals, 0 SOSs, and 0 indicators.
Presolve time = 0.21 sec. (111.24 ticks)
Probing time = 0.01 sec. (5.97 ticks)
Clique table members: 1542.
MIP emphasis: balance optimality and feasibility.
MIP search method: dynamic search.
Parallel mode: none, using 1 thread.
Root relaxation solution time = 2.76 sec. (983.34 ticks)

        Nodes                                         Cuts/
   Node  Left     Objective  IInf  Best Integer    Best Bound    ItCnt     Gap

*     0+    0                            0.0000    20955.0000              --- 
      0     0     3175.0000   513        0.0000     3175.0000     3555     --- 
      0     0     3175.0000   712        0.0000    Cuts: 1081    27435     --- 
      0     0     3175.0000    31        0.0000   ZeroHalf: 6    27447     --- 
      0     0     3175.0000    66        0.0000  ZeroHalf: 15    27883     --- 
*     0+    0                           75.0000     3175.0000              --- 
      0     0        cutoff             75.0000     3175.0000    27883     --- 
*     0+    0                         3175.0000     3175.0000             0.00%
      0     0        cutoff           3175.0000     3175.0000    27883    0.00%
      0     0        cutoff           3175.0000     3175.0000    27883    0.00%
Elapsed time = 359.61 sec. (132643.24 ticks, tree = 0.01 MB, solutions = 3)

Clique cuts applied:  6
Zero-half cuts applied:  124
Gomory fractional cuts applied:  1

Root node processing (before b&c):
  Real time             =  359.61 sec. (132644.37 ticks)
Sequential b&c:
  Real time             =    0.00 sec. (0.00 ticks)
                          ------------
Total (root+branch&cut) =  359.61 sec. (132644.37 ticks)
Solution is feasible.

---------------------
@@@ MIP_optimal
>>> Benchmark mc2024_track1_175.cnf k 10 OPT 3175 TimeCost 368.18155002593994 TimeSolve 361.0315673351288 TimeRead 0.012499094009399414 TimeTrans 7.137483596801758
